DIMENSION: 11
NODE_COORD_SECTION
11 457.5418994413 134.5859429367
2 48.9844683393 628.1191806331
3 -5908.1081081081 246.3217461601
4 -158.4478577203 -205.0121261116
5 -170.5558949297 106.4609450338
6 -741.8764302059 -78.1918142944
7 3657.1428571429 -8294.5945945946
8 -1433.5766423358 -123.5859124867
9 1081.8565400844 -221.4738054116
10 -142.0949902407 465.8753709199
1 -279.1208791209 265.3148345784
